56
1 0 15
2 0 32
2 1 29
3 0 46
3 1 59
3 2 24
4 0 55
4 1 6
4 2 46
4 3 37
5 0 11
5 1 19
5 2 5
5 3 25
5 4 41
6 0 45
6 1 1
6 2 10
6 3 25
6 4 8
6 5 57
7 0 6
7 1 50
7 2 52
7 3 21
7 4 55
7 5 2
7 6 11
8 0 14
8 1 19
8 2 54
8 3 44
8 4 13
8 5 13
8 6 53
8 7 21
9 0 53
9 1 9
9 2 57
9 3 14
9 4 34
9 5 50
9 6 64
9 7 21
9 8 4
10 0 6
10 1 60
10 2 52
10 3 59
10 4 28
10 5 47
10 6 46
10 7 9
10 8 28
10 9 24
11 0 45
11 1 8
11 2 2
11 3 35
11 4 39
11 5 48
11 6 24
11 7 41
11 8 12
11 9 54
11 10 10
12 0 25
12 1 31
12 2 24
12 3 40
12 4 47
12 5 14
12 6 39
12 7 33
12 8 52
12 9 48
12 10 43
12 11 35
13 0 10
13 1 60
13 2 7
13 3 11
13 4 42
13 5 25
13 6 54
13 7 50
13 8 38
13 9 41
13 10 25
13 11 33
13 12 63
14 0 21
14 1 1
14 2 33
14 3 4
14 4 39
14 5 43
14 6 6
14 7 32
14 8 58
14 9 28
14 10 10
14 11 52
14 12 24
14 13 4
15 0 6
15 1 3
15 2 2
15 3 55
15 4 43
15 5 38
15 6 58
15 7 49
15 8 53
15 9 53
15 10 33
15 11 44
15 12 21
15 13 54
15 14 15
16 0 14
16 1 47
16 2 38
16 3 64
16 4 20
16 5 8
16 6 7
16 7 53
16 8 47
16 9 28
16 10 34
16 11 12
16 12 9
16 13 36
16 14 25
16 15 39
17 0 10
17 1 20
17 2 8
17 3 35
17 4 60
17 5 9
17 6 52
17 7 46
17 8 60
17 9 7
17 10 49
17 11 21
17 12 54
17 13 20
17 14 12
17 15 50
17 16 10
18 0 9
18 1 23
18 2 9
18 3 36
18 4 58
18 5 51
18 6 62
18 7 8
18 8 28
18 9 33
18 10 47
18 11 20
18 12 11
18 13 13
18 14 40
18 15 53
18 16 32
18 17 62
19 0 32
19 1 6
19 2 26
19 3 14
19 4 41
19 5 59
19 6 64
19 7 25
19 8 62
19 9 31
19 10 59
19 11 57
19 12 24
19 13 46
19 14 12
19 15 32
19 16 9
19 17 53
19 18 51
20 0 49
20 1 30
20 2 35
20 3 7
20 4 41
20 5 57
20 6 6
20 7 57
20 8 60
20 9 57
20 10 15
20 11 33
20 12 33
20 13 64
20 14 57
20 15 46
20 16 33
20 17 12
20 18 58
20 19 53
21 0 33
21 1 29
21 2 19
21 3 33
21 4 62
21 5 56
21 6 53
21 7 27
21 8 5
21 9 22
21 10 56
21 11 8
21 12 48
21 13 62
21 14 51
21 15 18
21 16 48
21 17 55
21 18 26
21 19 13
21 20 51
22 0 43
22 1 20
22 2 55
22 3 20
22 4 4
22 5 55
22 6 11
22 7 21
22 8 13
22 9 29
22 10 13
22 11 26
22 12 49
22 13 4
22 14 29
22 15 43
22 16 62
22 17 33
22 18 32
22 19 29
22 20 1
22 21 40
23 0 33
23 1 8
23 2 32
23 3 20
23 4 43
23 5 59
23 6 56
23 7 33
23 8 12
23 9 62
23 10 4
23 11 15
23 12 38
23 13 60
23 14 47
23 15 1
23 16 47
23 17 45
23 18 58
23 19 1
23 20 11
23 21 21
23 22 52
24 0 13
24 1 19
24 2 3
24 3 10
24 4 19
24 5 11
24 6 55
24 7 25
24 8 49
24 9 2
24 10 27
24 11 28
24 12 46
24 13 56
24 14 60
24 15 7
24 16 37
24 17 36
24 18 17
24 19 2
24 20 64
24 21 28
24 22 40
24 23 62
25 0 23
25 1 16
25 2 37
25 3 54
25 4 34
25 5 10
25 6 2
25 7 35
25 8 13
25 9 45
25 10 30
25 11 56
25 12 49
25 13 25
25 14 59
25 15 46
25 16 17
25 17 6
25 18 60
25 19 35
25 20 23
25 21 26
25 22 59
25 23 48
25 24 7
26 0 48
26 1 34
26 2 28
26 3 63
26 4 51
26 5 51
26 6 53
26 7 26
26 8 35
26 9 27
26 10 62
26 11 56
26 12 1
26 13 19
26 14 60
26 15 18
26 16 38
26 17 13
26 18 27
26 19 11
26 20 19
26 21 11
26 22 21
26 23 55
26 24 41
26 25 9
27 0 63
27 1 51
27 2 47
27 3 47
27 4 3
27 5 38
27 6 56
27 7 16
27 8 5
27 9 24
27 10 52
27 11 31
27 12 23
27 13 50
27 14 25
27 15 41
27 16 44
27 17 28
27 18 6
27 19 31
27 20 1
27 21 52
27 22 3
27 23 53
27 24 5
27 25 53
27 26 16
28 0 40
28 1 35
28 2 41
28 3 2
28 4 21
28 5 25
28 6 26
28 7 20
28 8 38
28 9 22
28 10 62
28 11 49
28 12 5
28 13 44
28 14 52
28 15 22
28 16 2
28 17 47
28 18 43
28 19 33
28 20 16
28 21 56
28 22 43
28 23 14
28 24 6
28 25 59
28 26 59
28 27 27
29 0 59
29 1 5
29 2 51
29 3 55
29 4 16
29 5 56
29 6 35
29 7 11
29 8 4
29 9 56
29 10 52
29 11 38
29 12 40
29 13 5
29 14 10
29 15 3
29 16 20
29 17 64
29 18 54
29 19 64
29 20 30
29 21 15
29 22 25
29 23 46
29 24 18
29 25 57
29 26 36
29 27 47
29 28 13
30 0 58
30 1 62
30 2 23
30 3 30
30 4 42
30 5 18
30 6 2
30 7 35
30 8 57
30 9 59
30 10 32
30 11 48
30 12 5
30 13 34
30 14 8
30 15 18
30 16 53
30 17 40
30 18 10
30 19 34
30 20 51
30 21 34
30 22 15
30 23 7
30 24 20
30 25 60
30 26 55
30 27 24
30 28 39
30 29 15
31 0 37
31 1 4
31 2 24
31 3 8
31 4 54
31 5 27
31 6 6
31 7 17
31 8 64
31 9 4
31 10 25
31 11 1
31 12 1
31 13 9
31 14 9
31 15 24
31 16 31
31 17 1
31 18 21
31 19 56
31 20 21
31 21 63
31 22 55
31 23 55
31 24 20
31 25 8
31 26 37
31 27 30
31 28 55
31 29 21
31 30 33
32 0 25
32 1 18
32 2 43
32 3 60
32 4 57
32 5 9
32 6 18
32 7 48
32 8 61
32 9 22
32 10 59
32 11 21
32 12 36
32 13 21
32 14 60
32 15 52
32 16 8
32 17 23
32 18 44
32 19 36
32 20 1
32 21 45
32 22 17
32 23 5
32 24 26
32 25 24
32 26 63
32 27 54
32 28 58
32 29 50
32 30 35
32 31 40
33 0 61
33 1 62
33 2 12
33 3 27
33 4 39
33 5 61
33 6 37
33 7 4
33 8 24
33 9 1
33 10 22
33 11 58
33 12 16
33 13 46
33 14 12
33 15 30
33 16 61
33 17 38
33 18 13
33 19 46
33 20 17
33 21 16
33 22 46
33 23 32
33 24 50
33 25 31
33 26 5
33 27 12
33 28 23
33 29 52
33 30 43
33 31 39
33 32 32
34 0 29
34 1 36
34 2 58
34 3 64
34 4 25
34 5 25
34 6 39
34 7 56
34 8 24
34 9 15
34 10 37
34 11 19
34 12 6
34 13 62
34 14 5
34 15 63
34 16 15
34 17 59
34 18 17
34 19 32
34 20 61
34 21 5
34 22 15
34 23 13
34 24 36
34 25 9
34 26 62
34 27 51
34 28 24
34 29 4
34 30 52
34 31 54
34 32 13
34 33 3
35 0 46
35 1 47
35 2 61
35 3 61
35 4 9
35 5 42
35 6 18
35 7 40
35 8 6
35 9 64
35 10 3
35 11 52
35 12 19
35 13 54
35 14 29
35 15 22
35 16 60
35 17 50
35 18 42
35 19 59
35 20 41
35 21 63
35 22 37
35 23 57
35 24 53
35 25 28
35 26 3
35 27 20
35 28 14
35 29 36
35 30 28
35 31 44
35 32 36
35 33 57
35 34 43
36 0 6
36 1 36
36 2 21
36 3 63
36 4 18
36 5 33
36 6 12
36 7 62
36 8 17
36 9 32
36 10 13
36 11 46
36 12 30
36 13 55
36 14 54
36 15 18
36 16 16
36 17 16
36 18 10
36 19 27
36 20 33
36 21 48
36 22 24
36 23 43
36 24 52
36 25 35
36 26 34
36 27 6
36 28 57
36 29 29
36 30 34
36 31 3
36 32 53
36 33 3
36 34 25
36 35 21
37 0 10
37 1 16
37 2 53
37 3 60
37 4 28
37 5 49
37 6 16
37 7 48
37 8 31
37 9 30
37 10 47
37 11 45
37 12 62
37 13 54
37 14 54
37 15 4
37 16 12
37 17 7
37 18 6
37 19 26
37 20 18
37 21 18
37 22 26
37 23 59
37 24 61
37 25 49
37 26 17
37 27 9
37 28 57
37 29 1
37 30 52
37 31 39
37 32 2
37 33 8
37 34 35
37 35 56
37 36 34
38 0 62
38 1 17
38 2 36
38 3 12
38 4 38
38 5 15
38 6 55
38 7 31
38 8 31
38 9 62
38 10 30
38 11 40
38 12 41
38 13 61
38 14 43
38 15 17
38 16 43
38 17 15
38 18 29
38 19 37
38 20 20
38 21 45
38 22 34
38 23 13
38 24 9
38 25 35
38 26 49
38 27 61
38 28 23
38 29 7
38 30 31
38 31 22
38 32 47
38 33 11
38 34 31
38 35 36
38 36 34
38 37 28
39 0 52
39 1 10
39 2 32
39 3 42
39 4 47
39 5 38
39 6 36
39 7 50
39 8 16
39 9 44
39 10 48
39 11 58
39 12 6
39 13 27
39 14 22
39 15 3
39 16 29
39 17 30
39 18 30
39 19 3
39 20 20
39 21 50
39 22 39
39 23 64
39 24 24
39 25 52
39 26 35
39 27 64
39 28 13
39 29 21
39 30 62
39 31 17
39 32 44
39 33 59
39 34 37
39 35 54
39 36 5
39 37 30
39 38 33
40 0 24
40 1 17
40 2 27
40 3 28
40 4 48
40 5 7
40 6 40
40 7 35
40 8 38
40 9 48
40 10 46
40 11 22
40 12 53
40 13 24
40 14 50
40 15 1
40 16 61
40 17 63
40 18 37
40 19 48
40 20 31
40 21 53
40 22 26
40 23 9
40 24 3
40 25 49
40 26 47
40 27 51
40 28 48
40 29 52
40 30 46
40 31 41
40 32 1
40 33 18
40 34 48
40 35 33
40 36 3
40 37 42
40 38 20
40 39 9
41 0 18
41 1 57
41 2 48
41 3 33
41 4 63
41 5 50
41 6 4
41 7 15
41 8 28
41 9 47
41 10 29
41 11 35
41 12 37
41 13 55
41 14 34
41 15 49
41 16 61
41 17 34
41 18 10
41 19 38
41 20 29
41 21 31
41 22 33
41 23 40
41 24 2
41 25 17
41 26 59
41 27 41
41 28 34
41 29 53
41 30 10
41 31 56
41 32 15
41 33 5
41 34 48
41 35 9
41 36 45
41 37 1
41 38 12
41 39 31
41 40 18
42 0 59
42 1 3
42 2 6
42 3 60
42 4 17
42 5 46
42 6 7
42 7 42
42 8 41
42 9 57
42 10 53
42 11 25
42 12 52
42 13 13
42 14 43
42 15 20
42 16 44
42 17 45
42 18 28
42 19 61
42 20 47
42 21 59
42 22 4
42 23 15
42 24 14
42 25 51
42 26 52
42 27 53
42 28 20
42 29 42
42 30 33
42 31 6
42 32 56
42 33 11
42 34 30
42 35 34
42 36 31
42 37 52
42 38 1
42 39 47
42 40 64
42 41 16
43 0 54
43 1 59
43 2 52
43 3 52
43 4 39
43 5 54
43 6 30
43 7 58
43 8 31
43 9 38
43 10 28
43 11 62
43 12 39
43 13 20
43 14 62
43 15 24
43 16 40
43 17 22
43 18 42
43 19 30
43 20 44
43 21 54
43 22 59
43 23 31
43 24 48
43 25 7
43 26 31
43 27 4
43 28 63
43 29 19
43 30 50
43 31 49
43 32 30
43 33 54
43 34 44
43 35 43
43 36 56
43 37 16
43 38 5
43 39 57
43 40 22
43 41 51
43 42 2
44 0 48
44 1 2
44 2 17
44 3 51
44 4 58
44 5 10
44 6 61
44 7 53
44 8 40
44 9 2
44 10 27
44 11 28
44 12 61
44 13 2
44 14 49
44 15 49
44 16 37
44 17 5
44 18 29
44 19 30
44 20 44
44 21 3
44 22 57
44 23 2
44 24 55
44 25 35
44 26 18
44 27 35
44 28 8
44 29 40
44 30 35
44 31 44
44 32 27
44 33 34
44 34 12
44 35 60
44 36 21
44 37 32
44 38 40
44 39 27
44 40 44
44 41 12
44 42 8
44 43 54
45 0 27
45 1 28
45 2 27
45 3 27
45 4 59
45 5 6
45 6 56
45 7 56
45 8 30
45 9 30
45 10 21
45 11 46
45 12 51
45 13 25
45 14 28
45 15 31
45 16 45
45 17 64
45 18 58
45 19 44
45 20 22
45 21 63
45 22 62
45 23 34
45 24 35
45 25 23
45 26 2
45 27 56
45 28 17
45 29 35
45 30 13
45 31 44
45 32 8
45 33 10
45 34 30
45 35 9
45 36 39
45 37 34
45 38 22
45 39 11
45 40 25
45 41 14
45 42 29
45 43 1
45 44 45
46 0 56
46 1 23
46 2 9
46 3 56
46 4 15
46 5 41
46 6 25
46 7 38
46 8 63
46 9 56
46 10 36
46 11 4
46 12 1
46 13 12
46 14 34
46 15 41
46 16 13
46 17 27
46 18 44
46 19 14
46 20 34
46 21 11
46 22 16
46 23 42
46 24 37
46 25 16
46 26 58
46 27 1
46 28 24
46 29 5
46 30 36
46 31 14
46 32 15
46 33 33
46 34 24
46 35 40
46 36 11
46 37 43
46 38 22
46 39 31
46 40 56
46 41 4
46 42 58
46 43 27
46 44 24
46 45 58
47 0 39
47 1 10
47 2 64
47 3 34
47 4 41
47 5 21
47 6 64
47 7 18
47 8 50
47 9 6
47 10 16
47 11 8
47 12 5
47 13 49
47 14 45
47 15 11
47 16 30
47 17 56
47 18 30
47 19 39
47 20 50
47 21 5
47 22 56
47 23 45
47 24 18
47 25 9
47 26 51
47 27 5
47 28 27
47 29 49
47 30 2
47 31 24
47 32 20
47 33 58
47 34 37
47 35 54
47 36 41
47 37 4
47 38 12
47 39 32
47 40 27
47 41 32
47 42 20
47 43 11
47 44 10
47 45 26
47 46 40
48 0 19
48 1 16
48 2 40
48 3 23
48 4 12
48 5 41
48 6 12
48 7 36
48 8 40
48 9 10
48 10 64
48 11 44
48 12 27
48 13 59
48 14 25
48 15 15
48 16 43
48 17 52
48 18 8
48 19 26
48 20 47
48 21 60
48 22 35
48 23 58
48 24 7
48 25 40
48 26 35
48 27 25
48 28 54
48 29 3
48 30 41
48 31 15
48 32 9
48 33 62
48 34 26
48 35 36
48 36 8
48 37 62
48 38 10
48 39 41
48 40 10
48 41 11
48 42 23
48 43 22
48 44 7
48 45 13
48 46 16
48 47 63
49 0 18
49 1 16
49 2 52
49 3 53
49 4 15
49 5 6
49 6 62
49 7 14
49 8 25
49 9 38
49 10 36
49 11 62
49 12 20
49 13 14
49 14 36
49 15 27
49 16 7
49 17 11
49 18 43
49 19 37
49 20 12
49 21 39
49 22 2
49 23 52
49 24 22
49 25 49
49 26 58
49 27 29
49 28 8
49 29 10
49 30 33
49 31 2
49 32 42
49 33 55
49 34 15
49 35 1
49 36 31
49 37 60
49 38 4
49 39 28
49 40 16
49 41 22
49 42 61
49 43 25
49 44 2
49 45 43
49 46 17
49 47 53
49 48 54
50 0 63
50 1 56
50 2 53
50 3 34
50 4 9
50 5 10
50 6 3
50 7 4
50 8 50
50 9 14
50 10 35
50 11 1
50 12 42
50 13 4
50 14 58
50 15 45
50 16 58
50 17 29
50 18 7
50 19 19
50 20 38
50 21 47
50 22 11
50 23 44
50 24 44
50 25 54
50 26 61
50 27 17
50 28 64
50 29 22
50 30 57
50 31 45
50 32 6
50 33 3
50 34 40
50 35 18
50 36 2
50 37 53
50 38 38
50 39 36
50 40 19
50 41 21
50 42 11
50 43 25
50 44 47
50 45 5
50 46 61
50 47 25
50 48 49
50 49 55
51 0 11
51 1 45
51 2 40
51 3 32
51 4 23
51 5 23
51 6 20
51 7 38
51 8 59
51 9 39
51 10 25
51 11 25
51 12 56
51 13 21
51 14 53
51 15 21
51 16 19
51 17 64
51 18 39
51 19 43
51 20 5
51 21 2
51 22 55
51 23 17
51 24 52
51 25 29
51 26 35
51 27 30
51 28 26
51 29 12
51 30 62
51 31 43
51 32 16
51 33 31
51 34 57
51 35 3
51 36 20
51 37 6
51 38 53
51 39 16
51 40 33
51 41 34
51 42 45
51 43 37
51 44 59
51 45 12
51 46 9
51 47 30
51 48 9
51 49 18
51 50 6
52 0 21
52 1 30
52 2 6
52 3 24
52 4 35
52 5 61
52 6 38
52 7 24
52 8 34
52 9 20
52 10 43
52 11 11
52 12 37
52 13 25
52 14 41
52 15 46
52 16 50
52 17 45
52 18 28
52 19 46
52 20 12
52 21 62
52 22 57
52 23 28
52 24 11
52 25 4
52 26 5
52 27 44
52 28 23
52 29 29
52 30 15
52 31 43
52 32 56
52 33 11
52 34 22
52 35 12
52 36 46
52 37 6
52 38 51
52 39 45
52 40 24
52 41 43
52 42 64
52 43 17
52 44 6
52 45 44
52 46 1
52 47 57
52 48 22
52 49 39
52 50 10
52 51 29
53 0 36
53 1 39
53 2 33
53 3 52
53 4 3
53 5 17
53 6 42
53 7 53
53 8 39
53 9 40
53 10 3
53 11 28
53 12 25
53 13 64
53 14 55
53 15 7
53 16 59
53 17 54
53 18 19
53 19 18
53 20 35
53 21 29
53 22 31
53 23 21
53 24 16
53 25 20
53 26 50
53 27 40
53 28 10
53 29 40
53 30 53
53 31 29
53 32 54
53 33 51
53 34 42
53 35 53
53 36 15
53 37 29
53 38 2
53 39 41
53 40 2
53 41 8
53 42 31
53 43 34
53 44 31
53 45 16
53 46 52
53 47 30
53 48 26
53 49 55
53 50 2
53 51 3
53 52 28
54 0 34
54 1 7
54 2 46
54 3 4
54 4 35
54 5 62
54 6 44
54 7 59
54 8 48
54 9 18
54 10 11
54 11 26
54 12 1
54 13 36
54 14 12
54 15 29
54 16 34
54 17 13
54 18 64
54 19 13
54 20 33
54 21 30
54 22 5
54 23 57
54 24 46
54 25 57
54 26 7
54 27 2
54 28 62
54 29 13
54 30 17
54 31 62
54 32 54
54 33 4
54 34 5
54 35 1
54 36 49
54 37 62
54 38 24
54 39 13
54 40 35
54 41 15
54 42 9
54 43 1
54 44 57
54 45 2
54 46 27
54 47 40
54 48 28
54 49 42
54 50 38
54 51 61
54 52 36
54 53 35
55 0 21
55 1 54
55 2 45
55 3 58
55 4 29
55 5 53
55 6 8
55 7 53
55 8 33
55 9 62
55 10 21
55 11 17
55 12 25
55 13 45
55 14 37
55 15 9
55 16 36
55 17 58
55 18 8
55 19 46
55 20 58
55 21 22
55 22 16
55 23 59
55 24 59
55 25 29
55 26 9
55 27 56
55 28 59
55 29 61
55 30 10
55 31 30
55 32 34
55 33 51
55 34 5
55 35 18
55 36 31
55 37 33
55 38 30
55 39 14
55 40 44
55 41 54
55 42 1
55 43 56
55 44 60
55 45 16
55 46 45
55 47 17
55 48 46
55 49 53
55 50 8
55 51 46
55 52 10
55 53 35
55 54 5
